Al                                      
1.00000000000000     
4.0438102080939711    0.0000000000000000   -0.0000000000000000
0.0000000000000000    4.0438102080939711    0.0000000000000000
0.0000000000000000    0.0000000000000000    4.0438102080939711
Al
4
Selective dynamics
Direct
0.0000000000000000  0.0000000000000000  0.0000000000000000   T   T   T
0.0000000000000000  0.5000000000000000  0.5000000000000000   T   T   T
0.5000000000000000  0.0000000000000000  0.5000000000000000   T   T   T
0.5000000000000000  0.5000000000000000  0.0000000000000000   T   T   T
